<number of tasks>
100

<cycle time>
1000

<order strength>
0.896


<task times>
1 194
2 229
3 157
4 190
5 117
6 91
7 175
8 25
9 125
10 284
11 218
12 81
13 32
14 185
15 97
16 166
17 268
18 80
19 176
20 229
21 187
22 140
23 207
24 32
25 103
26 82
27 256
28 88
29 22
30 224
31 92
32 173
33 184
34 116
35 168
36 75
37 68
38 21
39 149
40 191
41 126
42 109
43 267
44 105
45 346
46 234
47 48
48 176
49 154
50 53
51 106
52 145
53 113
54 61
55 174
56 262
57 245
58 135
59 146
60 143
61 264
62 213
63 252
64 276
65 204
66 87
67 143
68 108
69 51
70 115
71 179
72 48
73 86
74 129
75 152
76 216
77 151
78 225
79 235
80 56
81 72
82 20
83 274
84 190
85 344
86 134
87 140
88 270
89 111
90 137
91 191
92 250
93 36
94 213
95 30
96 54
97 121
98 87
99 69
100 85

<precedence relations>
1,11
1,12
2,5
2,6
2,7
2,8
3,5
3,6
3,7
3,8
4,5
4,6
4,7
4,8
5,9
5,10
5,11
5,12
6,9
6,10
6,11
6,12
7,9
7,10
7,11
7,12
8,9
8,10
8,11
8,12
9,13
9,14
9,15
10,13
10,14
10,15
11,13
11,14
11,15
12,13
12,14
12,15
13,16
13,17
13,18
13,19
14,16
14,17
14,18
14,19
15,16
15,17
15,18
15,19
16,20
16,21
16,22
17,20
17,21
17,22
18,20
18,21
18,22
19,20
19,21
19,22
20,23
20,24
20,25
20,26
21,23
21,24
21,25
21,26
22,23
22,24
22,25
22,26
23,27
23,28
23,29
23,30
23,31
23,32
24,27
24,28
24,29
24,30
24,31
24,32
25,27
25,28
25,29
25,30
25,31
25,32
26,27
26,28
26,29
26,30
26,31
26,32
27,33
27,34
27,35
27,36
28,33
28,34
28,35
28,36
29,33
29,34
29,35
29,36
30,33
30,34
30,35
30,36
31,33
31,34
31,35
31,36
32,33
32,34
32,35
32,36
33,37
33,38
33,39
34,37
34,38
34,39
35,37
35,38
35,39
36,37
36,38
36,39
37,40
37,41
37,42
38,40
38,41
38,42
39,40
39,41
39,42
40,43
40,44
41,43
41,44
42,43
42,44
43,45
43,46
43,47
44,45
44,46
44,47
45,48
46,48
47,48
48,49
48,50
48,51
48,52
49,53
49,54
49,55
50,53
50,54
50,55
51,53
51,54
52,53
52,54
52,55
53,61
53,72
54,56
54,58
55,56
55,57
55,58
55,59
56,61
56,62
58,69
58,72
59,60
59,61
59,62
60,63
60,65
61,84
61,92
62,63
62,64
62,65
63,66
63,80
64,73
65,66
65,67
65,68
66,70
66,75
67,71
68,69
69,73
70,72
70,78
70,85
71,72
71,74
72,95
73,74
73,75
73,76
73,77
74,80
74,93
75,78
75,79
75,82
75,85
76,78
76,80
76,81
76,88
77,79
79,83
79,86
80,82
80,85
80,86
81,84
81,90
82,87
83,88
84,89
85,87
85,94
86,89
86,97
87,92
88,90
88,91
88,93
88,94
90,99
91,99
91,100
92,96
93,95
94,96
95,100
96,97
96,98
96,99

<end>
